/*********************************************
 * OPL 12.6.0.0 Data
 * Author: Adrian Rodriguez Bazaga, Pau Rodriguez Esmerats
 * Creation Date: 21/11/2017 at 20:50:29
 *********************************************/

nNurses=125;
maxConsec=2;
maxPresence=7;
maxHours=5;
minHours=1;
demand= [20 21 43 40 21 43 40 21 34 22 6 8 8 8 9 8 7 6 3 0 16 41 26 26  ];
